(set-logic QF_S)
(declare-fun T_24 () Bool)
(declare-fun T_25 () Bool)
(declare-fun T_SELECT_6 () Bool)
(declare-fun PCTEMP_LHS_6 () Int)
(declare-fun T0_41 () String)
(declare-fun T1_41 () String)
(declare-fun var_0xINPUT_119415 () String)
(assert (= var_0xINPUT_119415 (str.++ T0_41 T1_41)))
(assert (not (str.in.re T1_41 (str.to.re "__utmv=16886264."))))
(assert T_25)
(assert (= T_25 (not T_24)))
(assert (= T_24 (< (- 1) PCTEMP_LHS_6)))
(assert (= PCTEMP_LHS_6 (- 1)))
(assert (= T_SELECT_6 (not (= PCTEMP_LHS_6 (- 1)))))
(assert (= 0 (str.len T0_41))) ; len 0
(assert (not T_SELECT_6))
(check-sat)
